(benchmark program
 :status sat
 :logic QF_LIA
:extrafuns ((memory_disp_4521984 BitVec[32])(memory_disp_4522060 BitVec[32])(memory_disp_4128768 BitVec[32])(memory_disp_4128844 BitVec[32])(TOP BitVec[32]))
:formula(and ( not  (= (= (bvsub memory_disp_4521984 bv17744[32]) bv0[32]) false))( =  (= (bvsub memory_disp_4522060 bv1129601601[32]) bv0[32]) false)( not  (= (= (bvsub memory_disp_4128768 bv17744[32]) bv0[32]) false))( =  (= (bvsub memory_disp_4128844 bv1129601601[32]) bv0[32]) false)( =  (= (bvsub memory_disp_4128844 bv1129601601[32]) bv0[32]) true) )
)
